--------------------------------------------------------------------------------------------------------------------------------------------
1844 2859 
--------------------------------------------------------------------------------------------------------------------------------------------
1544 1270 
--------------------------------------------------------------------------------------------------------------------------------------------
1 52 
--------------------------------------------------------------------------------------------------------------------------------------------
51 1 
--------------------------------------------------------------------------------------------------------------------------------------------
2416 1975 
--------------------------------------------------------------------------------------------------------------------------------------------
1261 1470 
--------------------------------------------------------------------------------------------------------------------------------------------
52 1 
--------------------------------------------------------------------------------------------------------------------------------------------
1 51 
--------------------------------------------------------------------------------------------------------------------------------------------
2179 2334 
--------------------------------------------------------------------------------------------------------------------------------------------
1722 1189 
--------------------------------------------------------------------------------------------------------------------------------------------
1 52 
--------------------------------------------------------------------------------------------------------------------------------------------
51 1 
--------------------------------------------------------------------------------------------------------------------------------------------
2429 1807 
--------------------------------------------------------------------------------------------------------------------------------------------
1195 1328 
--------------------------------------------------------------------------------------------------------------------------------------------
55 1 
--------------------------------------------------------------------------------------------------------------------------------------------
1 51 
--------------------------------------------------------------------------------------------------------------------------------------------
2170 2563 
--------------------------------------------------------------------------------------------------------------------------------------------
1595 1152 
--------------------------------------------------------------------------------------------------------------------------------------------
1 63 
--------------------------------------------------------------------------------------------------------------------------------------------
51 1 
--------------------------------------------------------------------------------------------------------------------------------------------
1929 2890 
--------------------------------------------------------------------------------------------------------------------------------------------
1578 1348 
--------------------------------------------------------------------------------------------------------------------------------------------
1 51 
--------------------------------------------------------------------------------------------------------------------------------------------
51 1 
--------------------------------------------------------------------------------------------------------------------------------------------
2159 2778 
--------------------------------------------------------------------------------------------------------------------------------------------
1726 1460 
--------------------------------------------------------------------------------------------------------------------------------------------
1 55 
--------------------------------------------------------------------------------------------------------------------------------------------
51 1 
--------------------------------------------------------------------------------------------------------------------------------------------
2494 1834 
--------------------------------------------------------------------------------------------------------------------------------------------
1221 1458 
--------------------------------------------------------------------------------------------------------------------------------------------
51 1 
--------------------------------------------------------------------------------------------------------------------------------------------
1 51 
--------------------------------------------------------------------------------------------------------------------------------------------
2073 1897 
--------------------------------------------------------------------------------------------------------------------------------------------
1168 1238 
--------------------------------------------------------------------------------------------------------------------------------------------
62 1 
--------------------------------------------------------------------------------------------------------------------------------------------
1 51 
--------------------------------------------------------------------------------------------------------------------------------------------
1774 2182 
--------------------------------------------------------------------------------------------------------------------------------------------
1374 1135 
--------------------------------------------------------------------------------------------------------------------------------------------
1 52 
--------------------------------------------------------------------------------------------------------------------------------------------
51 1 
